NAME: Random_100_4
ELLAPSED_TIME_(ms): 1
TOUR_SIZE: 3135.4204
TOUR_SECTION
0
78
1
47
51
3
88
36
31
59
32
50
34
9
84
40
5
39
23
8
44
15
58
93
24
10
65
52
29
22
48
92
73
81
85
16
18
7
4
77
91
49
35
38
64
2
69
66
42
68
72
37
54
13
89
83
61
20
82
53
21
46
57
33
86
97
98
43
28
55
74
90
26
11
96
56
62
30
14
19
45
60
17
12
27
79
87
75
76
70
95
80
94
63
6
67
25
71
41
99
0
EOF
